5 5
4 54 2 35 0 46 1 1 3 41
1 73 3 32 0 84 4 77 2 40
2 11 0 62 3 46 1 48 4 43
3 51 1 61 0 42 2 26 4 11
0 25 4 40 3 25 2 84 1 75
-1
0 2 5
0 1 2 3 5
0 1 3 5
0 1 4 5
0 1 2 4 5
-2
109 202
90 110 264 456
17 137 260
78 192 212
29 67 208 323

337 7
20 11 7 17 2
5 16 13 24 3
10 23 1 18 9
15 22 6 12 4
21 0 8 14 19
